NAME: instances/10_2.tsp
TYPE: TSP
COMMENT: 10-Staedte in Burma (Zaw Win)
DIMENSION: 10
EDGE_WEIGHT_TYPE: GEO
EDGE_WEIGHT_FORMAT: FUNCTION
DISPLAY_DATA_TYPE: COORD_DISPLAY
NODE_COORD_SECTION
1 -20.26 -13.01
2 2.97 -12.64
3 -7.97 -6.87
4 22.07 9.01
5 -27.4 26.78
6 28.84 -15.89
7 -24.11 -14.15
8 2.98 0.47
9 -17.57 -22.78
10 15.38 -13.89
EOF
